p edge 19 52
e 1 2
e 1 4
e 2 3
e 3 6
e 3 11
e 4 6
e 4 11
e 5 6
e 5 7
e 5 8
e 5 9
e 5 11
e 5 12
e 5 13
e 5 14
e 6 7
e 6 8
e 6 9
e 6 10
e 6 12
e 6 13
e 6 14
e 7 8
e 7 9
e 7 10
e 7 11
e 7 13
e 7 14
e 8 9
e 8 10
e 8 11
e 8 12
e 8 14
e 9 10
e 9 11
e 9 12
e 9 13
e 10 16
e 11 16
e 12 16
e 13 16
e 14 16
e 15 16
e 15 17
e 15 18
e 15 19
e 16 17
e 16 18
e 16 19
e 17 18
e 17 19
e 18 19
